100
2942
5
86
85
41
62
32
0 1
0 3
0 4
0 7
0 8
0 14
0 16
0 17
0 18
0 21
0 23
0 24
0 27
0 29
0 30
0 31
0 32
0 33
0 34
0 37
0 39
0 41
0 42
0 44
0 45
0 46
0 47
0 49
0 50
0 51
0 52
0 54
0 55
0 56
0 58
0 60
0 61
0 62
0 64
0 65
0 67
0 68
0 69
0 70
0 71
0 72
0 74
0 75
0 76
0 80
0 82
0 84
0 86
0 89
0 91
0 92
0 93
0 96
0 97
0 99
1 2
1 4
1 6
1 7
1 9
1 11
1 15
1 16
1 17
1 18
1 20
1 21
1 23
1 24
1 25
1 27
1 29
1 31
1 33
1 35
1 36
1 41
1 42
1 43
1 45
1 47
1 48
1 50
1 51
1 52
1 53
1 54
1 59
1 67
1 68
1 69
1 72
1 73
1 74
1 75
1 76
1 77
1 78
1 79
1 80
1 82
1 83
1 84
1 85
1 86
1 87
1 88
1 90
1 93
1 94
1 95
1 98
2 3
2 4
2 5
2 6
2 7
2 8
2 9
2 10
2 11
2 12
2 16
2 17
2 19
2 20
2 21
2 22
2 23
2 24
2 25
2 27
2 28
2 29
2 31
2 32
2 34
2 35
2 36
2 40
2 41
2 45
2 46
2 47
2 48
2 50
2 51
2 52
2 54
2 56
2 57
2 59
2 61
2 63
2 65
2 66
2 68
2 69
2 73
2 74
2 76
2 78
2 80
2 82
2 83
2 84
2 86
2 91
2 92
2 93
2 94
2 97
3 4
3 6
3 8
3 9
3 10
3 11
3 12
3 13
3 14
3 18
3 20
3 22
3 25
3 26
3 27
3 28
3 29
3 30
3 34
3 35
3 37
3 38
3 39
3 41
3 43
3 45
3 46
3 49
3 50
3 51
3 53
3 55
3 57
3 60
3 61
3 65
3 66
3 67
3 68
3 69
3 73
3 74
3 75
3 76
3 79
3 83
3 84
3 86
3 87
3 90
3 91
3 92
3 94
3 97
3 98
3 99
4 6
4 7
4 11
4 12
4 13
4 14
4 18
4 19
4 20
4 21
4 22
4 23
4 25
4 26
4 28
4 30
4 32
4 34
4 36
4 37
4 39
4 40
4 41
4 43
4 45
4 50
4 52
4 54
4 55
4 56
4 57
4 58
4 59
4 61
4 62
4 65
4 67
4 68
4 71
4 72
4 73
4 74
4 76
4 84
4 86
4 87
4 89
4 91
4 92
4 94
4 97
4 98
5 6
5 10
5 12
5 13
5 14
5 15
5 18
5 22
5 24
5 26
5 28
5 29
5 31
5 32
5 33
5 34
5 36
5 37
5 40
5 42
5 43
5 44
5 45
5 47
5 48
5 50
5 51
5 52
5 55
5 56
5 57
5 59
5 61
5 63
5 64
5 66
5 68
5 70
5 71
5 72
5 76
5 79
5 81
5 82
5 84
5 85
5 86
5 91
5 93
5 95
5 99
6 7
6 8
6 9
6 10
6 11
6 12
6 14
6 15
6 17
6 18
6 19
6 20
6 21
6 25
6 26
6 27
6 28
6 29
6 30
6 31
6 32
6 33
6 35
6 40
6 41
6 42
6 44
6 46
6 50
6 51
6 52
6 54
6 56
6 58
6 59
6 60
6 61
6 64
6 65
6 66
6 69
6 70
6 71
6 72
6 73
6 74
6 77
6 78
6 79
6 81
6 82
6 83
6 84
6 88
6 89
6 94
6 95
6 96
6 97
6 98
6 99
7 10
7 11
7 12
7 13
7 14
7 15
7 17
7 19
7 22
7 23
7 25
7 26
7 30
7 31
7 32
7 33
7 34
7 35
7 36
7 37
7 38
7 39
7 40
7 42
7 43
7 44
7 45
7 47
7 48
7 49
7 50
7 51
7 52
7 54
7 56
7 57
7 58
7 59
7 61
7 62
7 64
7 65
7 66
7 67
7 68
7 69
7 71
7 72
7 74
7 75
7 78
7 79
7 80
7 84
7 85
7 87
7 89
7 91
7 94
7 96
7 97
8 11
8 13
8 16
8 17
8 18
8 20
8 21
8 22
8 23
8 26
8 27
8 32
8 34
8 35
8 38
8 39
8 40
8 41
8 42
8 44
8 46
8 49
8 51
8 52
8 55
8 58
8 59
8 63
8 64
8 65
8 67
8 70
8 71
8 73
8 74
8 76
8 77
8 78
8 79
8 82
8 84
8 85
8 86
8 87
8 88
8 90
8 92
8 93
8 94
8 99
9 10
9 12
9 13
9 17
9 18
9 19
9 20
9 21
9 22
9 23
9 25
9 26
9 28
9 33
9 34
9 36
9 37
9 39
9 40
9 42
9 45
9 46
9 47
9 49
9 51
9 53
9 54
9 56
9 58
9 59
9 60
9 63
9 64
9 67
9 68
9 70
9 71
9 73
9 74
9 75
9 76
9 78
9 79
9 80
9 81
9 82
9 86
9 89
9 94
9 95
9 97
9 98
9 99
10 13
10 14
10 15
10 16
10 18
10 19
10 20
10 21
10 22
10 23
10 26
10 27
10 30
10 31
10 34
10 36
10 37
10 38
10 40
10 42
10 43
10 45
10 46
10 47
10 49
10 50
10 53
10 55
10 60
10 61
10 62
10 64
10 66
10 68
10 70
10 71
10 72
10 73
10 74
10 75
10 76
10 77
10 80
10 82
10 83
10 86
10 87
10 88
10 89
10 91
10 93
10 94
10 95
10 96
10 97
10 98
10 99
11 12
11 15
11 16
11 17
11 18
11 20
11 23
11 25
11 28
11 30
11 31
11 32
11 33
11 34
11 35
11 36
11 37
11 39
11 41
11 42
11 44
11 46
11 48
11 49
11 50
11 53
11 54
11 57
11 58
11 59
11 60
11 61
11 62
11 66
11 69
11 74
11 75
11 76
11 77
11 80
11 82
11 86
11 87
11 88
11 89
11 90
11 91
11 92
11 93
11 94
11 95
11 96
11 97
12 13
12 15
12 18
12 20
12 23
12 24
12 26
12 28
12 31
12 33
12 34
12 35
12 37
12 38
12 40
12 41
12 42
12 45
12 48
12 49
12 50
12 51
12 53
12 56
12 58
12 60
12 62
12 64
12 65
12 66
12 67
12 70
12 72
12 73
12 75
12 76
12 77
12 78
12 79
12 80
12 82
12 83
12 85
12 87
12 88
12 91
12 94
12 96
12 97
12 98
12 99
13 14
13 15
13 16
13 20
13 21
13 25
13 26
13 28
13 29
13 30
13 31
13 32
13 33
13 34
13 35
13 37
13 38
13 39
13 40
13 43
13 44
13 45
13 46
13 47
13 48
13 49
13 50
13 51
13 52
13 53
13 56
13 57
13 58
13 59
13 60
13 61
13 62
13 63
13 65
13 66
13 67
13 70
13 71
13 74
13 75
13 76
13 77
13 79
13 80
13 81
13 83
13 86
13 87
13 89
13 90
13 91
13 93
13 94
13 95
13 97
14 16
14 18
14 19
14 26
14 29
14 30
14 31
14 32
14 35
14 36
14 37
14 38
14 39
14 40
14 41
14 42
14 46
14 48
14 49
14 50
14 51
14 55
14 56
14 58
14 59
14 60
14 61
14 62
14 63
14 64
14 65
14 67
14 68
14 69
14 71
14 74
14 75
14 76
14 78
14 80
14 81
14 82
14 85
14 86
14 87
14 88
14 89
14 90
14 91
14 92
14 93
14 94
14 95
14 97
14 98
14 99
15 17
15 18
15 19
15 21
15 22
15 23
15 29
15 33
15 34
15 35
15 38
15 41
15 42
15 43
15 48
15 50
15 52
15 53
15 55
15 56
15 57
15 60
15 61
15 62
15 63
15 64
15 65
15 66
15 67
15 68
15 70
15 71
15 72
15 74
15 75
15 78
15 80
15 81
15 85
15 86
15 87
15 89
15 90
15 91
15 95
15 97
15 98
15 99
16 18
16 19
16 20
16 22
16 23
16 25
16 26
16 27
16 30
16 33
16 35
16 36
16 41
16 42
16 44
16 45
16 46
16 47
16 48
16 49
16 50
16 51
16 52
16 53
16 56
16 58
16 59
16 60
16 61
16 62
16 65
16 66
16 68
16 70
16 74
16 76
16 78
16 80
16 81
16 84
16 85
16 86
16 88
16 89
16 90
16 92
16 94
16 95
16 96
16 97
16 98
16 99
17 18
17 19
17 20
17 22
17 23
17 28
17 29
17 30
17 34
17 37
17 39
17 42
17 44
17 47
17 50
17 52
17 53
17 57
17 58
17 60
17 63
17 66
17 67
17 68
17 70
17 71
17 73
17 74
17 75
17 76
17 78
17 81
17 82
17 85
17 87
17 88
17 89
17 90
17 91
17 93
17 95
17 96
17 97
17 98
18 19
18 21
18 22
18 23
18 27
18 28
18 30
18 32
18 34
18 35
18 36
18 38
18 40
18 41
18 44
18 45
18 47
18 48
18 49
18 50
18 53
18 54
18 55
18 56
18 58
18 59
18 61
18 64
18 65
18 66
18 67
18 68
18 69
18 70
18 74
18 75
18 76
18 80
18 81
18 82
18 84
18 85
18 87
18 88
18 92
18 93
18 95
18 96
18 97
18 98
19 21
19 22
19 23
19 24
19 25
19 27
19 30
19 32
19 35
19 36
19 38
19 39
19 40
19 41
19 42
19 43
19 46
19 47
19 49
19 51
19 53
19 56
19 57
19 60
19 63
19 64
19 65
19 66
19 68
19 69
19 71
19 72
19 73
19 74
19 75
19 76
19 77
19 78
19 81
19 83
19 84
19 85
19 86
19 87
19 90
19 92
19 93
19 94
19 96
19 97
19 98
20 22
20 23
20 25
20 26
20 30
20 31
20 33
20 34
20 36
20 39
20 40
20 42
20 44
20 45
20 46
20 47
20 51
20 52
20 53
20 54
20 55
20 56
20 57
20 58
20 59
20 62
20 63
20 64
20 65
20 66
20 71
20 72
20 74
20 75
20 77
20 78
20 81
20 82
20 83
20 84
20 90
20 93
20 94
20 95
20 97
20 98
20 99
21 22
21 23
21 24
21 26
21 28
21 29
21 30
21 31
21 32
21 34
21 35
21 36
21 39
21 40
21 41
21 42
21 44
21 47
21 51
21 52
21 53
21 55
21 56
21 58
21 59
21 60
21 61
21 62
21 63
21 64
21 65
21 66
21 67
21 68
21 69
21 70
21 75
21 79
21 80
21 81
21 83
21 84
21 85
21 86
21 88
21 92
21 93
21 95
21 96
21 98
21 99
22 23
22 24
22 25
22 27
22 30
22 31
22 32
22 36
22 37
22 38
22 39
22 41
22 42
22 43
22 44
22 46
22 49
22 51
22 52
22 53
22 56
22 58
22 59
22 61
22 62
22 66
22 69
22 72
22 73
22 76
22 77
22 78
22 80
22 83
22 84
22 86
22 87
22 88
22 91
22 93
22 94
22 97
22 99
23 25
23 26
23 28
23 29
23 30
23 31
23 32
23 33
23 34
23 35
23 37
23 40
23 41
23 42
23 43
23 44
23 45
23 46
23 49
23 50
23 51
23 52
23 54
23 57
23 60
23 61
23 63
23 64
23 65
23 70
23 71
23 72
23 75
23 78
23 79
23 80
23 82
23 84
23 86
23 87
23 88
23 90
23 92
23 94
23 95
23 98
24 25
24 26
24 28
24 29
24 31
24 32
24 33
24 34
24 35
24 37
24 38
24 39
24 41
24 42
24 46
24 47
24 48
24 50
24 51
24 52
24 54
24 57
24 58
24 59
24 60
24 62
24 64
24 65
24 66
24 67
24 68
24 69
24 72
24 73
24 77
24 78
24 79
24 82
24 83
24 85
24 88
24 90
24 92
24 95
24 97
24 98
25 28
25 31
25 34
25 35
25 36
25 38
25 39
25 41
25 43
25 45
25 48
25 52
25 53
25 54
25 55
25 58
25 62
25 66
25 69
25 70
25 72
25 77
25 79
25 80
25 83
25 86
25 87
25 89
25 93
25 94
25 95
25 97
25 98
25 99
26 30
26 31
26 32
26 33
26 34
26 35
26 37
26 39
26 43
26 45
26 46
26 48
26 52
26 53
26 54
26 56
26 57
26 59
26 63
26 64
26 66
26 67
26 68
26 69
26 72
26 73
26 74
26 75
26 77
26 78
26 79
26 80
26 81
26 82
26 83
26 85
26 86
26 87
26 88
26 89
26 90
26 92
26 95
26 96
26 97
26 98
26 99
27 30
27 32
27 33
27 34
27 35
27 38
27 40
27 47
27 52
27 53
27 57
27 61
27 62
27 63
27 64
27 66
27 67
27 68
27 69
27 70
27 73
27 75
27 76
27 77
27 78
27 79
27 82
27 85
27 87
27 89
27 90
27 91
27 92
27 94
27 95
27 97
27 98
27 99
28 29
28 32
28 33
28 36
28 38
28 39
28 42
28 43
28 44
28 45
28 46
28 47
28 49
28 53
28 55
28 56
28 57
28 58
28 59
28 61
28 62
28 63
28 65
28 67
28 68
28 71
28 73
28 74
28 78
28 80
28 82
28 83
28 87
28 90
28 91
28 92
28 93
28 94
28 99
29 31
29 33
29 34
29 35
29 36
29 37
29 38
29 39
29 40
29 41
29 42
29 43
29 44
29 47
29 48
29 53
29 55
29 60
29 61
29 62
29 63
29 64
29 65
29 66
29 69
29 73
29 74
29 75
29 77
29 78
29 79
29 82
29 84
29 86
29 89
29 90
29 91
29 92
29 93
29 94
29 95
29 97
29 99
30 31
30 32
30 33
30 34
30 37
30 39
30 40
30 42
30 44
30 45
30 46
30 48
30 49
30 50
30 51
30 53
30 54
30 58
30 59
30 60
30 62
30 64
30 67
30 68
30 69
30 71
30 72
30 73
30 74
30 77
30 81
30 84
30 85
30 86
30 89
30 91
30 92
30 94
30 95
30 96
30 98
30 99
31 34
31 35
31 38
31 39
31 42
31 43
31 44
31 46
31 47
31 50
31 52
31 54
31 56
31 57
31 58
31 59
31 60
31 61
31 63
31 66
31 69
31 70
31 71
31 72
31 74
31 75
31 80
31 81
31 82
31 83
31 85
31 86
31 87
31 88
31 89
31 92
31 94
31 96
31 99
32 33
32 34
32 36
32 38
32 40
32 43
32 44
32 45
32 47
32 49
32 51
32 52
32 53
32 55
32 56
32 58
32 59
32 60
32 62
32 63
32 64
32 68
32 70
32 71
32 72
32 74
32 76
32 77
32 78
32 81
32 82
32 83
32 84
32 87
32 89
32 90
32 91
32 94
32 95
32 96
33 35
33 36
33 37
33 39
33 42
33 44
33 45
33 47
33 48
33 49
33 51
33 52
33 53
33 54
33 57
33 61
33 62
33 63
33 64
33 65
33 68
33 69
33 70
33 77
33 79
33 81
33 82
33 83
33 85
33 86
33 89
33 90
33 93
33 94
33 95
33 96
33 97
33 98
33 99
34 37
34 38
34 39
34 41
34 43
34 44
34 45
34 46
34 48
34 49
34 50
34 54
34 56
34 58
34 59
34 62
34 63
34 64
34 65
34 70
34 71
34 76
34 78
34 84
34 86
34 87
34 89
34 92
34 93
34 94
34 95
34 97
34 98
35 38
35 45
35 46
35 47
35 49
35 50
35 53
35 55
35 56
35 57
35 60
35 63
35 65
35 68
35 69
35 73
35 74
35 75
35 76
35 77
35 78
35 79
35 82
35 84
35 86
35 87
35 88
35 89
35 91
35 92
35 93
35 94
35 95
35 98
35 99
36 37
36 38
36 40
36 41
36 43
36 48
36 50
36 51
36 53
36 54
36 56
36 57
36 59
36 60
36 62
36 63
36 64
36 65
36 66
36 69
36 70
36 71
36 72
36 75
36 77
36 78
36 80
36 81
36 84
36 85
36 87
36 89
36 90
36 91
36 92
36 94
36 97
36 98
36 99
37 38
37 39
37 41
37 43
37 44
37 49
37 50
37 51
37 52
37 53
37 54
37 57
37 59
37 60
37 67
37 68
37 70
37 72
37 73
37 75
37 77
37 78
37 81
37 82
37 84
37 85
37 86
37 88
37 89
37 90
37 91
37 92
37 93
37 95
37 96
38 39
38 40
38 41
38 42
38 43
38 46
38 47
38 48
38 52
38 54
38 55
38 57
38 59
38 60
38 63
38 64
38 65
38 66
38 71
38 73
38 74
38 75
38 77
38 78
38 80
38 84
38 85
38 86
38 87
38 88
38 89
38 92
38 93
38 94
38 95
38 99
39 40
39 46
39 48
39 49
39 50
39 51
39 53
39 54
39 57
39 58
39 59
39 61
39 63
39 64
39 68
39 69
39 70
39 74
39 79
39 80
39 81
39 82
39 83
39 85
39 86
39 87
39 91
39 92
39 93
39 94
39 95
39 98
39 99
40 41
40 42
40 43
40 45
40 47
40 50
40 51
40 52
40 54
40 58
40 60
40 61
40 65
40 66
40 67
40 68
40 70
40 71
40 73
40 74
40 75
40 78
40 80
40 82
40 88
40 90
40 91
40 92
40 94
40 95
40 98
41 44
41 45
41 46
41 47
41 48
41 49
41 51
41 52
41 53
41 54
41 57
41 58
41 60
41 61
41 64
41 66
41 67
41 69
41 72
41 73
41 78
41 80
41 81
41 82
41 85
41 87
41 88
41 89
41 90
41 91
41 94
41 95
41 96
41 98
41 99
42 43
42 44
42 47
42 48
42 49
42 50
42 51
42 52
42 53
42 54
42 55
42 56
42 57
42 59
42 61
42 62
42 63
42 65
42 71
42 73
42 74
42 76
42 77
42 78
42 87
42 89
42 91
42 92
42 93
42 96
42 97
42 98
42 99
43 44
43 45
43 47
43 50
43 57
43 58
43 60
43 61
43 62
43 63
43 65
43 66
43 67
43 68
43 69
43 71
43 72
43 73
43 74
43 75
43 79
43 80
43 82
43 85
43 91
43 94
43 96
43 97
43 98
44 46
44 49
44 53
44 54
44 55
44 57
44 61
44 63
44 64
44 66
44 67
44 68
44 70
44 72
44 74
44 76
44 79
44 81
44 82
44 83
44 85
44 88
44 89
44 90
44 91
44 92
44 93
44 94
44 96
44 97
44 98
44 99
45 47
45 48
45 50
45 53
45 54
45 56
45 58
45 59
45 60
45 61
45 62
45 65
45 66
45 68
45 69
45 71
45 74
45 75
45 76
45 83
45 84
45 86
45 87
45 88
45 91
45 94
45 95
45 96
45 97
46 47
46 49
46 51
46 52
46 53
46 55
46 56
46 58
46 59
46 61
46 63
46 65
46 66
46 67
46 68
46 72
46 73
46 76
46 80
46 83
46 84
46 86
46 87
46 90
46 92
46 93
46 96
46 97
46 98
46 99
47 49
47 50
47 53
47 54
47 55
47 58
47 59
47 60
47 62
47 63
47 64
47 65
47 66
47 69
47 70
47 71
47 73
47 76
47 77
47 78
47 80
47 83
47 84
47 87
47 89
47 91
47 92
47 94
47 95
47 98
47 99
48 49
48 50
48 52
48 53
48 54
48 56
48 58
48 59
48 60
48 61
48 63
48 65
48 67
48 69
48 71
48 72
48 75
48 78
48 80
48 81
48 83
48 84
48 85
48 87
48 88
48 90
48 91
48 92
48 93
48 94
48 95
48 96
48 97
48 98
49 50
49 52
49 54
49 55
49 56
49 57
49 58
49 61
49 62
49 64
49 65
49 66
49 68
49 69
49 72
49 73
49 74
49 75
49 76
49 79
49 80
49 81
49 82
49 83
49 85
49 87
49 91
49 94
49 98
49 99
50 51
50 52
50 53
50 54
50 55
50 57
50 58
50 61
50 62
50 64
50 65
50 66
50 70
50 72
50 75
50 76
50 77
50 78
50 80
50 81
50 82
50 83
50 84
50 85
50 86
50 88
50 91
50 96
50 97
50 98
50 99
51 52
51 54
51 55
51 56
51 58
51 59
51 63
51 64
51 66
51 67
51 71
51 73
51 74
51 77
51 78
51 80
51 81
51 82
51 84
51 86
51 88
51 91
51 92
51 93
51 94
51 95
51 96
51 97
51 98
51 99
52 53
52 54
52 56
52 57
52 58
52 59
52 61
52 65
52 66
52 67
52 69
52 70
52 74
52 75
52 76
52 78
52 81
52 82
52 84
52 88
52 92
52 93
52 94
52 96
52 97
53 54
53 55
53 56
53 59
53 60
53 62
53 65
53 66
53 67
53 68
53 69
53 71
53 72
53 73
53 75
53 76
53 79
53 81
53 82
53 83
53 84
53 85
53 86
53 87
53 88
53 90
53 91
53 93
53 94
53 97
54 58
54 59
54 60
54 61
54 62
54 63
54 64
54 65
54 66
54 68
54 69
54 70
54 71
54 73
54 74
54 76
54 79
54 80
54 81
54 83
54 84
54 85
54 87
54 89
54 92
54 94
54 95
54 97
55 56
55 57
55 58
55 60
55 62
55 65
55 66
55 67
55 68
55 70
55 71
55 72
55 73
55 74
55 75
55 76
55 77
55 79
55 81
55 82
55 83
55 85
55 86
55 89
55 90
55 92
55 93
55 94
55 95
55 96
55 97
55 99
56 57
56 58
56 60
56 62
56 65
56 66
56 67
56 68
56 69
56 70
56 71
56 72
56 73
56 79
56 80
56 81
56 82
56 83
56 84
56 89
56 93
56 97
56 99
57 60
57 61
57 63
57 64
57 65
57 66
57 69
57 70
57 71
57 72
57 74
57 75
57 76
57 77
57 78
57 79
57 81
57 82
57 83
57 85
57 86
57 87
57 88
57 91
57 92
57 93
57 94
57 97
57 98
58 60
58 61
58 62
58 63
58 67
58 68
58 69
58 70
58 72
58 73
58 75
58 77
58 79
58 80
58 82
58 84
58 86
58 88
58 89
58 90
58 91
58 92
58 94
58 95
58 96
58 97
58 98
59 60
59 61
59 63
59 65
59 68
59 69
59 70
59 71
59 72
59 76
59 78
59 79
59 80
59 81
59 82
59 83
59 84
59 86
59 88
59 89
59 91
59 93
59 94
59 96
59 97
60 63
60 64
60 65
60 67
60 68
60 69
60 70
60 73
60 74
60 79
60 80
60 83
60 86
60 87
60 88
60 90
60 91
60 94
60 95
60 96
60 97
60 98
60 99
61 63
61 65
61 67
61 68
61 69
61 70
61 71
61 74
61 78
61 79
61 80
61 82
61 84
61 85
61 86
61 87
61 88
61 91
61 94
61 95
61 96
61 97
61 98
61 99
62 63
62 65
62 67
62 68
62 69
62 70
62 71
62 73
62 75
62 77
62 78
62 79
62 82
62 83
62 85
62 87
62 88
62 90
62 95
62 97
62 98
62 99
63 64
63 66
63 69
63 70
63 71
63 73
63 74
63 76
63 77
63 78
63 79
63 80
63 82
63 84
63 85
63 87
63 88
63 89
63 90
63 91
63 93
63 95
63 96
63 98
63 99
64 65
64 67
64 69
64 70
64 72
64 74
64 75
64 76
64 78
64 81
64 83
64 84
64 85
64 87
64 89
64 90
64 91
64 92
64 93
64 94
64 96
64 98
64 99
65 66
65 67
65 68
65 70
65 72
65 73
65 76
65 78
65 79
65 81
65 82
65 84
65 85
65 87
65 90
65 91
65 93
65 94
65 95
65 96
65 97
66 67
66 69
66 72
66 76
66 77
66 78
66 80
66 82
66 83
66 85
66 87
66 88
66 89
66 90
66 91
66 93
66 94
66 96
66 97
66 98
67 68
67 69
67 70
67 71
67 73
67 74
67 79
67 80
67 82
67 83
67 85
67 86
67 87
67 88
67 89
67 90
67 94
67 97
67 98
68 70
68 72
68 74
68 75
68 76
68 78
68 81
68 85
68 86
68 89
68 90
68 91
68 92
68 93
68 94
68 95
68 96
68 97
68 99
69 71
69 72
69 73
69 78
69 85
69 91
69 92
69 93
69 95
69 97
69 99
70 71
70 72
70 75
70 76
70 79
70 81
70 83
70 85
70 86
70 87
70 88
70 89
70 91
70 96
70 99
71 72
71 76
71 79
71 82
71 84
71 85
71 86
71 87
71 88
71 90
71 91
71 95
71 97
72 75
72 76
72 78
72 80
72 81
72 82
72 84
72 86
72 87
72 89
72 90
72 94
72 95
72 97
72 98
73 74
73 77
73 78
73 79
73 80
73 81
73 82
73 83
73 85
73 86
73 88
73 89
73 91
73 92
73 93
73 94
73 96
73 97
73 98
73 99
74 76
74 77
74 80
74 83
74 85
74 89
74 93
74 98
74 99
75 78
75 79
75 82
75 84
75 86
75 88
75 94
75 96
75 97
75 98
76 78
76 79
76 80
76 81
76 83
76 84
76 86
76 87
76 88
76 90
76 91
76 92
76 93
76 94
76 99
77 78
77 79
77 80
77 81
77 86
77 87
77 90
77 92
77 96
77 99
78 79
78 80
78 82
78 83
78 84
78 86
78 87
78 88
78 90
78 92
78 93
78 95
78 97
78 98
79 80
79 82
79 83
79 84
79 87
79 88
79 90
79 92
79 94
79 96
79 99
80 81
80 82
80 84
80 85
80 86
80 87
80 88
80 90
80 91
80 92
80 93
80 94
80 95
80 96
80 98
81 82
81 83
81 85
81 87
81 89
81 90
81 92
81 93
81 94
81 95
81 97
81 98
81 99
82 83
82 84
82 85
82 86
82 87
82 88
82 91
82 92
82 95
82 96
82 98
82 99
83 85
83 86
83 88
83 89
83 91
83 92
83 94
83 95
83 97
84 85
84 86
84 87
84 89
84 90
84 92
84 95
84 97
84 98
84 99
85 86
85 89
85 90
85 92
85 93
85 96
85 97
85 98
85 99
86 89
86 90
86 92
86 93
86 94
86 95
86 97
86 98
87 88
87 89
87 90
87 97
87 99
88 90
88 91
88 92
88 95
88 96
88 97
88 98
88 99
89 91
89 92
89 95
89 99
90 91
90 92
90 94
90 95
91 93
91 94
91 96
91 97
91 99
92 93
92 94
92 95
92 96
92 97
92 98
92 99
93 95
93 97
93 98
93 99
94 95
94 96
94 98
94 99
95 97
95 98
95 99
96 97
60 5 78 20 41 24 13 25 21 80 7 68 29 23 63 36 97 93 62 47
95 28 65 71 35 39 12 10 15 2 27 72 46 74 90 52 91 88 94 50
70 30 58 16 81 40 99 48 3 53 66 96 44 92 9 45 75 18 57 64
33 19 61 34 6 56 83 89 59 79 43 1 26 55 82 85 69 14 8 32
37 77 0 17 22 67 87 31 42 84 86 76 38 98 11 51 4 73 49 54
